(set-logic QF_S)
(set-option :parse-transducers true)
(set-option :produce-models true)
(define-fun-rec toLower ((x String) (y String)) Bool
   (or (and (= x "") (= y ""))
       (and (not (= x "")) (not (= y ""))
           (= (char.code (str.head y))
               (ite (and (<= 65 (char.code (str.head x)))
                       (<= (char.code (str.head x)) 90))
                   (+ (char.code (str.head x)) 32)
                   (char.code (str.head x))))
           (toLower (str.tail x) (str.tail y))))
)
(declare-fun sym623 () String)
(declare-fun sym965 () String)
(declare-fun sym737 () String)
(declare-fun sym1307 () String)
(declare-fun sym1912 () String)
(declare-fun sym509 () String)
(declare-fun sym395 () String)
(declare-fun sym242 () String)
(declare-fun sym2714 () String)
(declare-fun sym1457 () String)
(declare-fun sym122 () String)
(declare-fun sym1798 () String)
(declare-fun sym2368 () String)
(declare-fun sym1433 () String)
(declare-fun sym851 () String)
(declare-fun sym1079 () String)
(declare-fun sym1684 () String)
(declare-fun sym2026 () String)
(declare-fun sym2254 () String)
(declare-fun sym2596 () String)
(declare-fun sym1570 () String)
(declare-fun sym2140 () String)
(declare-fun sym2482 () String)
(declare-fun sym1193 () String)
(declare-fun L17  () String)
(declare-fun L28  () String)
(declare-fun L39  () String)
(declare-fun L29  () String)
(declare-fun L19  () String)
(declare-fun L12  () String)
(declare-fun L79  () String)
(declare-fun L14  () String)
(declare-fun L7  () String)
(declare-fun L41  () String)
(declare-fun L8  () String)
(declare-fun L20  () String)
(declare-fun L42  () String)
(declare-fun L5  () String)
(declare-fun L10  () String)
(declare-fun L43  () String)
(declare-fun L6  () String)
(declare-fun L11  () String)
(declare-fun L3  () String)
(declare-fun L4  () String)
(declare-fun L1  () String)
(declare-fun L2  () String)
(declare-fun L153  () String)
(declare-fun L0  () String)
(define-fun Alphabet () RegLan 
	(re.* (re.union (str.to_re " ") (str.to_re "0") (str.to_re "2") (str.to_re "3") (str.to_re "4") (str.to_re "5") (str.to_re "6") (str.to_re "7") (str.to_re "8") (str.to_re "A") (str.to_re "B") (str.to_re "C") (str.to_re "D") (str.to_re "E") (str.to_re "F") (str.to_re "G") (str.to_re "H") (str.to_re "I") (str.to_re "J") (str.to_re "K") (str.to_re "L") (str.to_re "M") (str.to_re "N") (str.to_re "O") (str.to_re "P") (str.to_re "Q") (str.to_re "R") (str.to_re "S") (str.to_re "T") (str.to_re "U") (str.to_re "V") (str.to_re "W") (str.to_re "X") (str.to_re "Y") (str.to_re "Z") (str.to_re "a") (str.to_re "b") (str.to_re "c") (str.to_re "d") (str.to_re "e") (str.to_re "f") (str.to_re "g") (str.to_re "h") (str.to_re "i") (str.to_re "j") (str.to_re "k") (str.to_re "l") (str.to_re "m") (str.to_re "n") (str.to_re "o") (str.to_re "p") (str.to_re "q") (str.to_re "r") (str.to_re "s") (str.to_re "t") (str.to_re "u") (str.to_re "v") (str.to_re "w") (str.to_re "x") (str.to_re "y") (str.to_re "z") ))
)
(assert (toLower sym2482  L0 ))
(assert (toLower sym1433  L153 ))
(assert (toLower sym242  L2 ))
(assert (toLower sym2368  L1 ))
(assert (toLower sym1307  L4 ))
(assert (toLower sym2596  L3 ))
(assert (toLower sym509  L11 ))
(assert (toLower sym851  L6 ))
(assert (toLower sym1798  L43 ))
(assert (toLower sym2026  L10 ))
(assert (toLower sym965  L5 ))
(assert (toLower sym1684  L42 ))
(assert (toLower sym1912  L20 ))
(assert (toLower sym1079  L8 ))
(assert (toLower sym737  L41 ))
(assert (toLower sym2254  L7 ))
(assert (toLower sym1193  L14 ))
(assert (toLower sym2140  L79 ))
(assert (toLower sym1457  L12 ))
(assert (toLower sym1570  L19 ))
(assert (toLower sym122  L29 ))
(assert (toLower sym2714  L39 ))
(assert (toLower sym395  L28 ))
(assert (toLower sym623  L17 ))

(assert (str.in_re sym1193 Alphabet))
(assert (str.in_re sym2482 Alphabet))
(assert (str.in_re sym2140 Alphabet))
(assert (str.in_re sym1570 Alphabet))
(assert (str.in_re sym2596 Alphabet))
(assert (str.in_re sym2254 Alphabet))
(assert (str.in_re sym2026 Alphabet))
(assert (str.in_re sym1684 Alphabet))
(assert (str.in_re sym1079 Alphabet))
(assert (str.in_re sym851 Alphabet))
(assert (str.in_re sym1433 Alphabet))
(assert (str.in_re sym2368 Alphabet))
(assert (str.in_re sym1798 Alphabet))
(assert (str.in_re sym122 Alphabet))
(assert (str.in_re sym1457 Alphabet))
(assert (str.in_re sym2714 Alphabet))
(assert (str.in_re sym242 Alphabet))
(assert (str.in_re sym395 Alphabet))
(assert (str.in_re sym509 Alphabet))
(assert (str.in_re sym1912 Alphabet))
(assert (str.in_re sym1307 Alphabet))
(assert (str.in_re sym737 Alphabet))
(assert (str.in_re sym965 Alphabet))
(assert (str.in_re sym623 Alphabet))
(assert (not (= L0 "/clear" )))
(assert (not (= L1 "/help" )))
(assert (not (str.contains L2 "/setfont" )))
(assert (not (str.contains L3 "/setsize" )))
(assert (not (str.contains L4 "/say" )))
(assert (not (str.contains L5 "/say" )))
(assert (not (= L6 "/help" )))
(assert (not (str.contains L7 "/setsize" )))
(assert (not (= L8 "/?" )))
(assert (not (str.contains L3 "/setfont" )))
(assert (not (= L10 "/help" )))
(assert (not (= L11 "n" )))
(assert (not (= L12 "elementary" )))
(assert (not (= L11 "/?" )))
(assert (not (str.contains L14 "/setsize" )))
(assert (not (= L1 "/clear" )))
(assert (not (str.contains L1 "/setfont" )))
(assert (not (= L17 "/clear" )))
(assert (not (= L7 "n" )))
(assert (not (str.contains L19 "/setfont" )))
(assert (not (= L20 "/?" )))
(assert (not (str.contains L3 "/say" )))
(assert (not (= L0 "/help" )))
(assert (not (str.contains L20 "/setfont" )))
(assert (not (str.contains L2 "/setsize" )))
(assert (not (str.contains L6 "/setfont" )))
(assert (not (= L7 "/quit" )))
(assert (not (= L14 "/restart" )))
(assert (not (= L28 "n" )))
(assert (= L29 "elementary" ))
(assert (not (= L5 "/quit" )))
(assert (not (= L14 "n" )))
(assert (not (= L10 "y" )))
(assert (not (= L19 "/restart" )))
(assert (not (= L8 "/help" )))
(assert (not (= L2 "n" )))
(assert (= L12 "high school" ))
(assert (not (= L14 "/help" )))
(assert (not (= L3 "/?" )))
(assert (not (= L39 "y" )))
(assert (not (= L28 "/clear" )))
(assert (not (= L41 "/quit" )))
(assert (not (str.contains L42 "/say" )))
(assert (not (= L43 "n" )))
(assert (not (= L2 "/quit" )))
(assert (not (= L41 "/help" )))
(assert (not (= L3 "n" )))
(assert (not (str.contains L0 "/say" )))
(assert (not (= L11 "/restart" )))
(assert (not (= L19 "/?" )))
(assert (not (= L43 "/quit" )))
(assert (not (str.contains L17 "/say" )))
(assert (not (str.contains L41 "/setsize" )))
(assert (not (str.contains L8 "/setfont" )))
(assert (not (str.contains L14 "/setfont" )))
(assert (not (= L42 "/?" )))
(assert (not (str.contains L8 "/say" )))
(assert (not (= L3 "y" )))
(assert (not (= L42 "/help" )))
(assert (not (= L19 "n" )))
(assert (not (= L6 "/quit" )))
(assert (not (str.contains L1 "/say" )))
(assert (not (str.contains L5 "/setsize" )))
(assert (not (= L5 "y" )))
(assert (not (str.contains L43 "/setsize" )))
(assert (not (str.contains L7 "/setfont" )))
(assert (not (= L11 "y" )))
(assert (not (str.contains L14 "/say" )))
(assert (not (= L10 "/clear" )))
(assert (not (= L4 "n" )))
(assert (not (str.contains L17 "/setsize" )))
(assert (not (= L2 "/?" )))
(assert (not (= L5 "n" )))
(assert (not (str.contains L42 "/setsize" )))
(assert (= L39 "n" ))
(assert (not (= L14 "/clear" )))
(assert (not (str.contains L19 "/say" )))
(assert (not (str.contains L43 "/say" )))
(assert (not (= L20 "n" )))
(assert (not (= L79 "/help" )))
(assert (not (str.contains L28 "/setsize" )))
(assert (not (= L0 "/quit" )))
(assert (not (str.contains L7 "/say" )))
(assert (not (= L0 "/?" )))
(assert (not (= L7 "/help" )))
(assert (not (str.contains L42 "/setfont" )))
(assert (not (= L42 "/quit" )))
(assert (not (= L1 "/restart" )))
(assert (not (= L17 "/?" )))
(assert (not (= L79 "/clear" )))
(assert (not (= L1 "y" )))
(assert (not (= L0 "/restart" )))
(assert (not (= L11 "/quit" )))
(assert (not (= L41 "n" )))
(assert (not (= L20 "y" )))
(assert (not (= L5 "/help" )))
(assert (not (= L8 "y" )))
(assert (not (= L2 "/help" )))
(assert (not (= L12 "middle school" )))
(assert (not (str.contains L5 "/setfont" )))
(assert (not (= L41 "/clear" )))
(assert (not (str.contains L79 "/setsize" )))
(assert (not (= L19 "/clear" )))
(assert (not (str.contains L28 "/say" )))
(assert (not (= L14 "/quit" )))
(assert (not (= L5 "/clear" )))
(assert (not (= L43 "y" )))
(assert (not (= L19 "/quit" )))
(assert (not (= L8 "/restart" )))
(assert (not (= L20 "/restart" )))
(assert (not (= L28 "/restart" )))
(assert (not (= L6 "n" )))
(assert (not (= L4 "/clear" )))
(assert (not (= L4 "/restart" )))
(assert (not (str.contains L43 "/setfont" )))
(assert (not (= L8 "/clear" )))
(assert (not (str.contains L8 "/setsize" )))
(assert (not (str.contains L10 "/say" )))
(assert (not (= L8 "n" )))
(assert (not (str.contains L1 "/setsize" )))
(assert (not (= L4 "/help" )))
(assert (not (str.contains L6 "/setsize" )))
(assert (not (= L6 "/?" )))
(assert (not (= L4 "/?" )))
(assert (not (= L0 "n" )))
(assert (not (str.contains L10 "/setfont" )))
(assert (not (str.contains L11 "/setfont" )))
(assert (not (= L43 "/?" )))
(assert (not (str.contains L41 "/say" )))
(assert (not (= L14 "/?" )))
(assert (not (= L7 "y" )))
(assert (not (= L10 "/restart" )))
(assert (not (= L43 "/restart" )))
(assert (not (= L20 "/help" )))
(assert (not (= L28 "/?" )))
(assert (not (= L11 "/clear" )))
(assert (not (= L1 "/quit" )))
(assert (not (= L41 "/?" )))
(assert (not (str.contains L11 "/say" )))
(assert (not (str.contains L79 "/setfont" )))
(assert (not (str.contains L0 "/setsize" )))
(assert (not (= L17 "n" )))
(assert (not (= L79 "n" )))
(assert (not (str.contains L0 "/setfont" )))
(assert (not (str.contains L79 "/say" )))
(assert (not (= L17 "/quit" )))
(assert (not (str.contains L20 "/setsize" )))
(assert (not (= L79 "/restart" )))
(assert (not (= L19 "/help" )))
(assert (not (= L42 "y" )))
(assert (not (= L2 "/clear" )))
(assert (not (= L42 "/restart" )))
(assert (not (= L3 "/quit" )))
(assert (= L153 "y" ))
(assert (not (= L10 "n" )))
(assert (not (= L5 "/?" )))
(assert (not (str.contains L41 "/setfont" )))
(assert (not (= L43 "/help" )))
(assert (not (= L28 "/quit" )))
(assert (not (= L6 "/clear" )))
(assert (not (= L7 "/restart" )))
(assert (not (str.contains L20 "/say" )))
(assert (not (str.contains L4 "/setfont" )))
(assert (not (str.contains L28 "/setfont" )))
(assert (not (= L79 "/?" )))
(assert (not (= L10 "/?" )))
(assert (not (= L0 "y" )))
(assert (not (= L3 "/help" )))
(assert (not (= L11 "/help" )))
(assert (not (= L6 "/restart" )))
(assert (not (= L2 "/restart" )))
(assert (not (= L42 "/clear" )))
(assert (not (= L3 "/restart" )))
(assert (not (= L20 "/clear" )))
(assert (not (= L19 "y" )))
(assert (not (= L79 "/quit" )))
(assert (not (= L42 "n" )))
(assert (not (= L17 "y" )))
(assert (not (= L43 "/clear" )))
(assert (not (= L7 "/?" )))
(assert (not (= L8 "/quit" )))
(assert (not (= L7 "/clear" )))
(assert (not (= L6 "y" )))
(assert (not (= L39 "/restart" )))
(assert (not (= L14 "y" )))
(assert (not (= L2 "y" )))
(assert (not (= L3 "/clear" )))
(assert (not (str.contains L19 "/setsize" )))
(assert (not (= L41 "/restart" )))
(assert (not (str.contains L10 "/setsize" )))
(assert (not (= L5 "/restart" )))
(assert (not (= L4 "/quit" )))
(assert (not (str.contains L17 "/setfont" )))
(assert (not (str.contains L6 "/say" )))
(assert (not (= L28 "y" )))
(assert (not (= L17 "/restart" )))
(assert (not (= L1 "n" )))
(assert (not (= L17 "/help" )))
(assert (not (= L4 "y" )))
(assert (not (= L20 "/quit" )))
(assert (not (= L28 "/help" )))
(assert (not (str.contains L11 "/setsize" )))
(assert (not (str.contains L2 "/say" )))
(assert (not (= L41 "y" )))
(assert (not (str.contains L4 "/setsize" )))
(assert (not (= L79 "y" )))
(assert (not (= L1 "/?" )))
(assert (not (= L10 "/quit" )))
(check-sat)
(get-model)
(exit)
